NAME : rnd69_20.tsp
TYPE : TSP
DIMENSION : 20
EDGE_WEIGHT_TYPE : EUC_2D
NODE_COORD_SECTION
0 683 371
1 826 966
2 854 337
3 777 629
4 774 25
5 779 56
6 543 467
7 273 829
8 836 438
9 718 125
10 937 847
11 796 380
12 801 525
13 740 856
14 418 800
15 590 902
16 935 880
17 590 165
18 466 223
19 648 51
